800 2102 
1 175 1
1 309 1
1 552 1
1 561 1
1 648 1
1 681 1
1 771 1
2 82 1
2 574 1
3 34 1
3 91 1
3 108 1
3 440 1
4 73 1
4 300 1
4 610 1
4 653 1
4 761 1
5 16 1
5 105 1
5 302 1
5 317 1
5 367 1
5 412 1
5 582 1
5 625 1
5 680 1
5 758 1
5 781 1
6 125 1
6 321 1
6 325 1
6 505 1
6 675 1
6 770 1
7 141 1
7 179 1
7 248 1
7 294 1
7 440 1
7 579 1
8 209 1
8 403 1
8 458 1
8 763 1
9 196 1
9 360 1
9 752 1
10 124 1
10 196 1
10 668 1
10 798 1
11 274 1
11 457 1
11 572 1
11 764 1
12 57 1
12 155 1
12 200 1
12 202 1
12 615 1
12 737 1
13 60 1
13 231 1
13 556 1
13 578 1
14 100 1
14 239 1
14 297 1
14 486 1
15 50 1
15 72 1
15 448 1
15 498 1
15 753 1
16 100 1
16 116 1
16 132 1
16 604 1
17 33 1
17 110 1
17 459 1
17 667 1
18 247 1
18 416 1
18 614 1
18 643 1
18 650 1
19 218 1
19 342 1
19 562 1
20 336 1
20 421 1
20 589 1
20 604 1
20 655 1
21 251 1
21 489 1
21 551 1
21 571 1
21 656 1
22 281 1
22 304 1
22 357 1
22 372 1
22 511 1
22 729 1
22 739 1
23 124 1
23 177 1
23 360 1
23 451 1
23 525 1
23 629 1
23 725 1
23 777 1
24 200 1
24 277 1
24 378 1
24 465 1
24 587 1
24 701 1
24 756 1
25 182 1
25 288 1
25 404 1
25 430 1
26 524 1
26 730 1
27 160 1
27 219 1
27 577 1
28 80 1
28 186 1
28 398 1
28 523 1
28 778 1
29 148 1
29 372 1
29 517 1
30 57 1
30 115 1
30 136 1
30 400 1
30 464 1
30 493 1
31 58 1
31 85 1
31 188 1
31 322 1
31 354 1
31 368 1
31 450 1
31 559 1
31 570 1
31 666 1
31 757 1
31 764 1
32 218 1
32 470 1
32 584 1
32 759 1
33 48 1
33 73 1
33 539 1
33 633 1
34 586 1
34 610 1
34 665 1
34 693 1
34 703 1
34 775 1
35 139 1
35 406 1
35 663 1
35 749 1
36 68 1
36 144 1
36 278 1
36 599 1
36 794 1
36 797 1
37 138 1
37 230 1
37 272 1
37 288 1
37 531 1
37 563 1
37 789 1
38 283 1
38 339 1
38 360 1
38 524 1
38 526 1
38 710 1
38 745 1
38 788 1
39 209 1
39 286 1
39 461 1
39 492 1
39 533 1
39 637 1
39 746 1
39 790 1
40 83 1
40 285 1
40 293 1
40 387 1
40 542 1
40 653 1
41 47 1
41 52 1
41 104 1
41 180 1
41 270 1
41 608 1
41 670 1
41 698 1
42 242 1
43 81 1
43 200 1
43 383 1
43 461 1
43 505 1
43 558 1
43 659 1
44 218 1
44 247 1
44 664 1
45 51 1
45 68 1
45 239 1
45 260 1
46 371 1
46 543 1
47 179 1
47 205 1
47 247 1
47 434 1
47 777 1
48 314 1
48 463 1
48 483 1
48 507 1
48 638 1
48 652 1
48 723 1
49 486 1
50 226 1
50 276 1
50 296 1
50 324 1
50 406 1
50 501 1
50 510 1
50 532 1
50 640 1
50 755 1
51 228 1
51 528 1
51 704 1
51 710 1
52 59 1
52 349 1
52 622 1
52 628 1
53 91 1
53 190 1
53 287 1
53 333 1
53 455 1
53 523 1
54 274 1
54 335 1
54 411 1
54 465 1
54 633 1
55 136 1
55 253 1
55 312 1
55 405 1
55 761 1
56 184 1
57 171 1
57 212 1
57 387 1
57 416 1
57 439 1
57 482 1
57 575 1
57 644 1
57 790 1
58 66 1
58 101 1
58 214 1
58 269 1
58 554 1
58 714 1
58 751 1
58 769 1
58 788 1
59 264 1
59 468 1
59 627 1
60 156 1
60 177 1
60 641 1
60 647 1
61 128 1
61 225 1
61 434 1
61 573 1
62 95 1
62 100 1
62 228 1
62 511 1
62 701 1
63 73 1
63 246 1
63 394 1
63 630 1
63 677 1
64 94 1
64 183 1
64 476 1
65 66 1
65 173 1
65 310 1
65 415 1
65 510 1
65 528 1
65 565 1
65 773 1
66 92 1
66 296 1
66 317 1
66 787 1
66 798 1
67 369 1
67 729 1
68 605 1
68 619 1
68 712 1
69 269 1
69 391 1
69 618 1
70 236 1
70 250 1
70 301 1
70 762 1
71 84 1
71 85 1
71 136 1
71 248 1
71 666 1
71 713 1
72 76 1
72 136 1
72 428 1
72 580 1
72 686 1
73 151 1
73 275 1
73 429 1
74 89 1
74 652 1
74 681 1
75 201 1
75 273 1
75 280 1
75 414 1
75 438 1
75 495 1
75 675 1
75 686 1
75 734 1
75 784 1
76 178 1
76 389 1
76 535 1
76 735 1
76 758 1
77 330 1
77 343 1
78 421 1
78 722 1
78 783 1
78 795 1
79 345 1
79 694 1
80 222 1
80 240 1
80 513 1
80 524 1
80 548 1
80 581 1
80 602 1
80 622 1
82 315 1
82 318 1
82 501 1
82 536 1
82 638 1
82 705 1
83 137 1
83 484 1
83 539 1
84 117 1
84 137 1
84 286 1
84 325 1
84 354 1
84 393 1
84 420 1
85 137 1
85 213 1
85 340 1
85 349 1
85 460 1
85 685 1
86 92 1
86 320 1
86 402 1
86 447 1
86 590 1
86 745 1
87 243 1
87 266 1
87 474 1
87 491 1
87 519 1
87 589 1
87 631 1
87 679 1
88 254 1
88 264 1
88 325 1
88 467 1
88 475 1
88 515 1
88 516 1
88 662 1
89 302 1
89 478 1
89 489 1
89 735 1
89 736 1
89 772 1
90 294 1
90 414 1
90 529 1
90 612 1
91 295 1
91 331 1
91 633 1
91 663 1
91 718 1
91 778 1
92 483 1
92 558 1
93 194 1
93 546 1
93 659 1
94 109 1
94 550 1
95 125 1
95 301 1
96 140 1
96 362 1
96 383 1
96 396 1
96 417 1
96 603 1
96 719 1
96 722 1
96 746 1
97 182 1
97 341 1
97 372 1
97 476 1
97 489 1
97 688 1
97 759 1
98 403 1
98 497 1
98 526 1
98 538 1
98 736 1
99 142 1
99 547 1
99 558 1
100 222 1
100 286 1
100 466 1
100 614 1
101 155 1
101 394 1
101 408 1
101 535 1
101 721 1
102 172 1
102 215 1
102 321 1
102 381 1
102 480 1
102 774 1
103 226 1
103 238 1
103 324 1
103 350 1
103 419 1
103 484 1
103 496 1
103 540 1
103 745 1
104 344 1
104 412 1
104 487 1
105 199 1
105 303 1
105 569 1
106 239 1
106 373 1
106 397 1
106 547 1
106 573 1
106 719 1
106 766 1
107 367 1
107 485 1
107 641 1
108 487 1
109 213 1
109 328 1
109 595 1
110 276 1
110 717 1
111 269 1
111 419 1
111 676 1
111 730 1
111 755 1
112 282 1
112 553 1
112 568 1
112 600 1
113 429 1
113 474 1
114 473 1
114 493 1
114 650 1
114 715 1
114 768 1
115 277 1
115 499 1
115 587 1
115 780 1
116 201 1
116 590 1
116 707 1
116 733 1
116 737 1
117 338 1
117 410 1
117 729 1
117 735 1
118 168 1
118 254 1
118 289 1
119 455 1
119 783 1
120 354 1
120 456 1
120 526 1
120 735 1
120 767 1
120 782 1
121 297 1
121 667 1
121 728 1
122 162 1
122 210 1
122 325 1
122 482 1
122 555 1
122 596 1
122 652 1
122 800 1
123 222 1
123 231 1
123 380 1
123 651 1
124 477 1
124 557 1
124 717 1
124 799 1
125 251 1
126 488 1
126 565 1
127 133 1
127 333 1
127 428 1
127 443 1
127 609 1
128 280 1
128 511 1
128 575 1
128 702 1
128 704 1
128 760 1
128 784 1
129 184 1
129 520 1
130 140 1
130 172 1
130 340 1
130 481 1
130 685 1
130 779 1
131 286 1
131 287 1
131 382 1
131 534 1
131 540 1
131 602 1
131 665 1
131 714 1
131 751 1
132 161 1
132 433 1
132 490 1
132 752 1
133 429 1
133 616 1
133 645 1
133 646 1
133 799 1
134 157 1
134 310 1
134 380 1
134 413 1
134 596 1
134 617 1
134 704 1
134 716 1
135 346 1
135 420 1
135 534 1
135 610 1
135 658 1
135 692 1
135 749 1
136 180 1
137 203 1
137 799 1
138 403 1
138 433 1
138 462 1
138 669 1
138 743 1
138 764 1
139 461 1
139 502 1
139 596 1
139 758 1
140 322 1
140 623 1
140 704 1
140 774 1
140 777 1
140 782 1
140 791 1
141 282 1
141 329 1
141 500 1
141 527 1
141 701 1
142 212 1
142 352 1
142 382 1
142 503 1
142 556 1
142 584 1
143 462 1
143 545 1
143 553 1
143 612 1
143 690 1
144 314 1
144 508 1
144 742 1
145 173 1
145 501 1
145 531 1
146 167 1
146 226 1
146 232 1
146 257 1
146 428 1
146 767 1
146 797 1
147 233 1
147 260 1
148 199 1
148 220 1
148 441 1
148 701 1
148 727 1
149 460 1
149 532 1
149 638 1
150 203 1
150 294 1
150 602 1
150 624 1
150 714 1
151 552 1
151 773 1
152 637 1
152 726 1
153 200 1
153 649 1
153 659 1
154 185 1
154 460 1
154 568 1
154 666 1
154 692 1
155 447 1
155 739 1
155 752 1
156 188 1
156 363 1
156 490 1
156 610 1
156 634 1
156 670 1
157 255 1
157 548 1
157 576 1
158 300 1
158 337 1
158 630 1
158 684 1
159 199 1
159 338 1
159 736 1
160 256 1
160 467 1
160 538 1
160 681 1
160 750 1
160 772 1
161 315 1
161 419 1
161 640 1
162 249 1
162 442 1
162 644 1
162 708 1
163 188 1
163 404 1
163 588 1
163 620 1
163 680 1
163 756 1
164 291 1
164 390 1
164 518 1
164 613 1
165 272 1
165 356 1
166 181 1
166 194 1
166 461 1
166 503 1
166 672 1
166 783 1
166 794 1
167 182 1
167 314 1
167 452 1
167 455 1
167 635 1
168 245 1
168 451 1
168 590 1
169 510 1
169 652 1
169 741 1
169 793 1
169 800 1
170 348 1
170 513 1
170 605 1
170 636 1
170 699 1
171 233 1
171 471 1
171 622 1
172 231 1
172 287 1
172 470 1
172 509 1
172 625 1
172 753 1
173 181 1
173 302 1
173 502 1
174 195 1
174 350 1
174 351 1
174 671 1
174 767 1
175 182 1
175 290 1
175 381 1
175 410 1
175 572 1
175 609 1
175 689 1
175 730 1
176 287 1
177 228 1
177 343 1
177 631 1
177 632 1
178 197 1
178 302 1
178 327 1
178 569 1
178 685 1
179 185 1
179 201 1
179 208 1
179 319 1
179 343 1
179 705 1
179 721 1
180 423 1
180 426 1
180 544 1
180 571 1
181 267 1
181 398 1
181 431 1
181 466 1
181 491 1
181 731 1
182 192 1
182 207 1
182 659 1
182 800 1
183 282 1
184 267 1
184 381 1
184 550 1
184 554 1
184 586 1
184 683 1
184 762 1
184 768 1
185 216 1
185 246 1
185 567 1
186 442 1
186 571 1
186 620 1
187 312 1
187 319 1
187 378 1
187 428 1
187 570 1
187 585 1
187 617 1
187 702 1
188 317 1
188 340 1
188 341 1
188 383 1
188 431 1
188 600 1
188 660 1
188 775 1
188 793 1
189 305 1
189 568 1
189 658 1
189 700 1
190 495 1
190 568 1
191 243 1
191 351 1
191 446 1
191 568 1
191 682 1
191 751 1
192 217 1
192 238 1
192 242 1
192 796 1
193 531 1
193 798 1
194 357 1
194 524 1
194 612 1
194 674 1
194 741 1
194 763 1
195 244 1
195 273 1
195 606 1
196 308 1
196 359 1
196 403 1
196 508 1
196 536 1
196 671 1
196 710 1
197 312 1
197 422 1
197 691 1
198 551 1
198 584 1
198 604 1
199 205 1
199 621 1
199 625 1
200 441 1
200 728 1
201 280 1
201 344 1
201 490 1
201 577 1
201 758 1
202 332 1
202 371 1
202 375 1
202 382 1
203 605 1
203 636 1
203 780 1
204 258 1
204 259 1
204 362 1
204 713 1
205 233 1
205 264 1
205 495 1
205 616 1
206 449 1
206 512 1
206 525 1
206 715 1
207 392 1
207 654 1
208 383 1
208 436 1
208 665 1
209 407 1
210 487 1
210 623 1
210 634 1
210 711 1
210 792 1
211 404 1
211 476 1
211 771 1
212 278 1
212 361 1
212 364 1
212 430 1
212 683 1
212 800 1
213 284 1
213 597 1
214 741 1
215 259 1
215 376 1
215 724 1
215 751 1
215 762 1
216 322 1
216 334 1
216 541 1
217 274 1
217 306 1
217 656 1
218 263 1
218 288 1
218 411 1
219 275 1
219 372 1
219 545 1
219 580 1
219 634 1
219 679 1
219 715 1
220 363 1
220 513 1
221 269 1
221 432 1
221 544 1
221 661 1
222 481 1
222 564 1
223 330 1
223 417 1
223 595 1
223 712 1
224 281 1
224 484 1
225 431 1
225 471 1
225 482 1
225 510 1
226 236 1
226 375 1
226 668 1
226 755 1
226 787 1
227 375 1
227 381 1
227 674 1
227 684 1
228 261 1
228 272 1
228 304 1
228 351 1
228 664 1
228 769 1
229 265 1
229 439 1
229 469 1
229 532 1
229 683 1
230 329 1
230 372 1
230 605 1
231 438 1
231 537 1
231 774 1
232 554 1
232 625 1
233 689 1
233 733 1
233 742 1
234 365 1
234 516 1
234 589 1
234 645 1
235 399 1
235 412 1
235 414 1
235 546 1
235 555 1
235 565 1
235 661 1
235 684 1
235 686 1
236 350 1
236 626 1
236 649 1
237 292 1
237 349 1
237 415 1
237 492 1
237 519 1
237 563 1
237 591 1
237 667 1
238 747 1
239 271 1
239 457 1
239 496 1
239 556 1
239 618 1
239 766 1
240 522 1
240 794 1
241 784 1
242 266 1
242 335 1
242 718 1
243 393 1
243 434 1
243 456 1
244 369 1
244 387 1
244 500 1
244 585 1
244 586 1
244 728 1
244 737 1
245 329 1
245 342 1
245 431 1
245 516 1
245 572 1
245 678 1
245 734 1
246 386 1
246 494 1
246 775 1
247 249 1
247 481 1
247 673 1
247 731 1
247 770 1
247 797 1
248 531 1
249 676 1
250 566 1
250 711 1
251 268 1
251 276 1
251 610 1
251 637 1
251 785 1
252 281 1
252 345 1
252 561 1
252 591 1
252 684 1
253 450 1
253 578 1
253 653 1
254 307 1
254 309 1
254 323 1
254 372 1
254 773 1
255 521 1
256 500 1
256 599 1
257 459 1
257 535 1
257 696 1
257 732 1
258 272 1
258 517 1
258 597 1
259 672 1
259 789 1
260 263 1
260 265 1
260 635 1
260 761 1
261 328 1
261 383 1
261 537 1
261 646 1
261 653 1
261 681 1
262 636 1
262 637 1
262 740 1
263 316 1
263 348 1
263 493 1
263 580 1
264 560 1
264 593 1
265 327 1
265 388 1
265 424 1
265 472 1
265 544 1
265 678 1
266 362 1
267 303 1
267 355 1
267 496 1
267 678 1
268 384 1
268 452 1
268 522 1
268 592 1
269 270 1
269 448 1
269 493 1
269 576 1
270 370 1
270 392 1
270 557 1
270 630 1
270 710 1
271 483 1
272 338 1
272 353 1
272 374 1
272 452 1
272 613 1
272 648 1
273 326 1
273 450 1
274 518 1
276 311 1
276 589 1
276 690 1
276 760 1
277 353 1
277 355 1
277 685 1
277 702 1
278 410 1
278 461 1
278 753 1
278 765 1
278 769 1
279 370 1
279 401 1
279 426 1
281 397 1
281 481 1
281 594 1
282 352 1
282 757 1
283 516 1
283 670 1
284 400 1
285 365 1
285 512 1
286 384 1
286 611 1
286 623 1
287 299 1
287 644 1
287 657 1
288 660 1
288 745 1
289 497 1
289 530 1
289 712 1
289 791 1
290 532 1
290 621 1
291 396 1
291 565 1
291 583 1
291 587 1
291 682 1
292 437 1
292 465 1
292 472 1
292 680 1
293 478 1
293 537 1
293 561 1
293 699 1
294 441 1
294 446 1
295 315 1
295 522 1
295 699 1
295 742 1
295 788 1
296 437 1
296 547 1
296 661 1
296 688 1
297 301 1
297 525 1
297 595 1
297 613 1
297 636 1
298 347 1
298 549 1
298 639 1
298 650 1
299 615 1
299 640 1
300 458 1
300 470 1
300 477 1
300 499 1
300 800 1
301 431 1
302 358 1
302 432 1
303 311 1
303 419 1
303 573 1
304 353 1
304 583 1
304 727 1
304 731 1
304 793 1
305 418 1
306 425 1
306 488 1
306 518 1
307 329 1
307 333 1
307 461 1
307 512 1
307 620 1
307 708 1
308 441 1
308 451 1
309 315 1
309 542 1
310 318 1
310 421 1
310 549 1
310 594 1
311 349 1
311 698 1
312 527 1
312 642 1
312 660 1
312 669 1
312 766 1
313 315 1
313 351 1
313 433 1
313 467 1
313 510 1
313 527 1
313 634 1
314 397 1
314 419 1
314 428 1
314 432 1
314 669 1
315 468 1
316 789 1
318 402 1
318 500 1
318 545 1
318 596 1
319 376 1
319 446 1
320 331 1
320 536 1
320 668 1
321 436 1
321 649 1
321 700 1
321 769 1
322 335 1
322 538 1
322 695 1
323 345 1
323 529 1
323 680 1
324 552 1
324 611 1
325 549 1
325 600 1
326 361 1
326 409 1
326 435 1
326 692 1
327 423 1
327 425 1
327 505 1
327 739 1
328 562 1
328 616 1
329 752 1
330 478 1
330 642 1
331 488 1
331 515 1
331 547 1
331 630 1
331 796 1
332 725 1
333 404 1
333 555 1
334 374 1
334 396 1
334 433 1
334 714 1
335 364 1
335 424 1
336 444 1
336 740 1
336 785 1
337 342 1
337 402 1
337 705 1
337 706 1
337 795 1
338 487 1
338 755 1
339 401 1
339 709 1
340 498 1
341 343 1
342 560 1
342 584 1
343 579 1
343 699 1
344 660 1
344 702 1
345 359 1
345 477 1
345 778 1
346 608 1
346 694 1
346 707 1
346 709 1
347 481 1
347 757 1
348 506 1
348 617 1
348 694 1
349 642 1
350 440 1
350 566 1
350 679 1
351 361 1
352 513 1
352 582 1
352 667 1
353 497 1
353 546 1
353 676 1
353 687 1
354 424 1
354 561 1
354 724 1
355 607 1
355 663 1
356 414 1
356 424 1
356 474 1
356 774 1
357 402 1
357 503 1
357 504 1
357 628 1
357 635 1
357 733 1
358 752 1
358 776 1
359 401 1
359 626 1
359 656 1
360 519 1
361 692 1
361 769 1
361 776 1
362 409 1
362 421 1
362 445 1
362 485 1
363 685 1
363 694 1
363 733 1
365 686 1
365 713 1
365 759 1
365 761 1
366 738 1
366 748 1
367 422 1
367 445 1
367 503 1
367 569 1
367 621 1
367 628 1
367 650 1
367 703 1
367 724 1
368 480 1
368 552 1
368 575 1
370 628 1
370 736 1
371 373 1
371 630 1
372 378 1
372 407 1
372 503 1
372 638 1
372 776 1
373 469 1
373 583 1
374 540 1
374 600 1
374 696 1
374 724 1
374 772 1
375 390 1
375 452 1
375 494 1
375 593 1
375 620 1
376 456 1
376 482 1
376 525 1
376 557 1
377 494 1
377 575 1
377 747 1
377 798 1
378 389 1
378 413 1
378 564 1
378 593 1
379 716 1
379 795 1
380 434 1
380 507 1
380 537 1
380 756 1
382 442 1
382 467 1
382 495 1
382 615 1
383 574 1
384 629 1
384 706 1
384 755 1
384 766 1
385 429 1
385 622 1
386 534 1
386 641 1
387 443 1
387 573 1
388 427 1
388 449 1
388 497 1
388 642 1
388 750 1
389 632 1
389 745 1
390 439 1
390 509 1
390 652 1
390 759 1
391 648 1
391 763 1
392 575 1
392 695 1
393 476 1
393 614 1
394 647 1
395 714 1
396 448 1
396 527 1
396 709 1
396 778 1
397 504 1
397 506 1
397 699 1
397 743 1
398 437 1
398 546 1
398 720 1
398 781 1
399 426 1
399 520 1
399 587 1
399 800 1
400 573 1
401 460 1
401 598 1
401 696 1
402 453 1
402 658 1
403 475 1
403 504 1
403 524 1
403 766 1
403 799 1
404 428 1
404 492 1
404 646 1
404 664 1
404 755 1
405 487 1
406 562 1
406 749 1
407 435 1
409 449 1
409 529 1
409 561 1
409 791 1
410 445 1
410 451 1
410 515 1
410 580 1
410 748 1
410 754 1
410 797 1
411 475 1
412 594 1
412 680 1
412 747 1
413 489 1
413 649 1
413 667 1
413 690 1
414 533 1
414 686 1
415 452 1
415 596 1
416 496 1
416 760 1
417 720 1
418 440 1
418 493 1
418 540 1
418 584 1
418 594 1
418 620 1
418 726 1
419 446 1
419 472 1
420 426 1
420 471 1
421 664 1
422 673 1
422 712 1
423 454 1
424 499 1
424 588 1
424 651 1
424 765 1
425 518 1
425 627 1
425 795 1
426 448 1
426 632 1
427 565 1
427 788 1
428 493 1
428 698 1
429 785 1
431 681 1
431 698 1
431 739 1
432 434 1
432 595 1
432 647 1
432 675 1
433 613 1
433 726 1
434 443 1
434 454 1
434 467 1
434 657 1
434 732 1
434 779 1
435 533 1
435 777 1
436 449 1
436 454 1
437 447 1
437 466 1
437 498 1
437 605 1
438 498 1
438 649 1
439 580 1
439 618 1
439 796 1
440 520 1
440 663 1
441 537 1
441 553 1
441 577 1
441 705 1
442 469 1
442 496 1
442 773 1
443 517 1
443 552 1
443 791 1
444 480 1
444 526 1
444 634 1
445 463 1
446 460 1
446 535 1
446 607 1
446 749 1
447 458 1
447 515 1
447 576 1
447 609 1
447 614 1
448 624 1
448 626 1
448 650 1
448 754 1
449 464 1
449 706 1
449 765 1
450 553 1
450 738 1
451 462 1
451 728 1
452 488 1
452 595 1
453 731 1
453 734 1
454 514 1
454 556 1
454 716 1
456 671 1
456 701 1
456 754 1
456 787 1
457 512 1
457 761 1
458 754 1
459 528 1
459 661 1
459 709 1
459 786 1
460 464 1
461 567 1
461 601 1
462 763 1
463 464 1
463 501 1
463 533 1
463 611 1
463 742 1
464 527 1
466 647 1
467 473 1
467 711 1
468 671 1
468 782 1
469 579 1
469 790 1
470 711 1
471 765 1
471 786 1
471 795 1
472 697 1
473 522 1
473 584 1
473 646 1
474 602 1
474 723 1
474 740 1
475 508 1
475 571 1
475 745 1
476 767 1
477 497 1
477 505 1
478 541 1
479 566 1
479 652 1
479 719 1
480 528 1
480 614 1
480 746 1
481 501 1
481 598 1
481 690 1
482 594 1
482 609 1
483 495 1
483 555 1
483 693 1
483 724 1
483 764 1
484 691 1
485 519 1
485 559 1
485 570 1
485 600 1
485 631 1
486 518 1
486 520 1
486 588 1
486 620 1
487 489 1
487 507 1
487 730 1
488 622 1
488 683 1
489 492 1
489 512 1
489 750 1
491 603 1
491 700 1
492 544 1
492 678 1
493 522 1
493 629 1
493 637 1
493 654 1
494 542 1
497 743 1
498 611 1
498 631 1
498 660 1
498 674 1
500 689 1
501 601 1
501 789 1
501 790 1
502 574 1
502 720 1
502 765 1
503 533 1
503 666 1
504 513 1
504 658 1
504 768 1
505 627 1
505 715 1
507 734 1
508 582 1
509 643 1
509 759 1
510 632 1
510 700 1
511 644 1
511 696 1
512 788 1
514 564 1
514 716 1
515 797 1
516 603 1
516 738 1
517 626 1
517 641 1
517 657 1
518 727 1
519 651 1
519 658 1
519 693 1
520 601 1
521 599 1
521 634 1
521 704 1
522 626 1
522 761 1
523 557 1
524 666 1
526 681 1
527 545 1
528 673 1
529 534 1
529 656 1
529 679 1
530 621 1
531 550 1
531 640 1
531 694 1
531 728 1
531 746 1
531 789 1
533 684 1
533 793 1
534 538 1
534 589 1
535 550 1
535 710 1
536 574 1
536 576 1
536 686 1
537 606 1
537 624 1
539 677 1
539 757 1
539 779 1
540 570 1
541 624 1
541 696 1
542 677 1
542 682 1
543 617 1
543 694 1
543 773 1
544 558 1
544 567 1
544 592 1
544 623 1
546 711 1
546 744 1
547 570 1
547 633 1
548 606 1
548 780 1
549 675 1
549 737 1
551 555 1
551 639 1
551 641 1
551 740 1
552 579 1
552 593 1
552 668 1
552 688 1
552 697 1
552 778 1
554 618 1
554 776 1
555 569 1
556 680 1
556 778 1
557 567 1
557 690 1
559 616 1
560 567 1
561 587 1
561 627 1
561 753 1
562 618 1
563 718 1
564 647 1
564 673 1
565 617 1
565 629 1
566 576 1
566 608 1
566 611 1
566 615 1
566 631 1
566 781 1
567 659 1
567 683 1
568 703 1
568 718 1
568 728 1
569 742 1
570 636 1
570 723 1
570 764 1
571 721 1
571 788 1
572 606 1
573 699 1
574 587 1
574 651 1
574 762 1
574 775 1
575 582 1
575 639 1
575 644 1
576 741 1
576 785 1
577 706 1
578 713 1
578 741 1
579 619 1
580 604 1
580 780 1
581 612 1
583 655 1
583 669 1
585 647 1
585 717 1
586 609 1
587 621 1
587 673 1
588 591 1
591 708 1
592 731 1
594 630 1
595 648 1
596 684 1
596 711 1
596 758 1
597 767 1
598 764 1
600 622 1
600 698 1
602 731 1
602 736 1
603 664 1
604 712 1
605 743 1
606 669 1
606 718 1
607 625 1
609 786 1
610 687 1
610 709 1
611 655 1
613 749 1
614 616 1
614 736 1
615 690 1
615 691 1
615 773 1
616 655 1
616 732 1
616 780 1
618 786 1
619 717 1
620 727 1
620 754 1
622 768 1
623 676 1
623 753 1
624 719 1
626 662 1
626 674 1
628 668 1
628 676 1
628 742 1
628 781 1
629 650 1
629 725 1
629 785 1
630 794 1
631 697 1
631 723 1
631 754 1
632 720 1
633 748 1
634 635 1
634 777 1
636 662 1
638 743 1
639 695 1
642 703 1
642 725 1
643 791 1
644 721 1
644 781 1
646 729 1
646 756 1
647 722 1
647 770 1
647 783 1
648 697 1
648 744 1
650 697 1
650 798 1
653 706 1
656 744 1
657 771 1
657 775 1
658 783 1
659 713 1
660 748 1
663 795 1
665 705 1
666 707 1
668 713 1
673 753 1
674 715 1
675 722 1
675 797 1
676 719 1
677 682 1
680 687 1
682 700 1
683 740 1
683 769 1
685 692 1
686 749 1
687 726 1
687 796 1
688 708 1
689 733 1
690 746 1
693 726 1
695 757 1
696 707 1
699 750 1
701 730 1
701 748 1
702 777 1
704 790 1
707 774 1
709 786 1
710 726 1
711 776 1
712 732 1
712 793 1
713 715 1
714 751 1
714 790 1
715 756 1
723 768 1
723 799 1
726 776 1
729 796 1
730 738 1
730 772 1
741 757 1
742 792 1
743 771 1
750 780 1
751 779 1
752 774 1
754 772 1
755 762 1
757 771 1
759 794 1
762 779 1
766 783 1
767 781 1
777 799 1
786 792 1
